N = 43;
MinK = 7;
Capacity = 100;

X = array1d(0..43, [35, 77, 95, 91, 65, 51, 41, 39, 70, 74, 81, 77, 84, 48, 98, 92, 42, 52, 44, 48, 80, 42, 73, 81, 102, 82, 96, 98, 84, 44, 73, 96, 46, 92, 44, 98, 96, 46, 77, 104, 58, 46, 73, 94]);
Y = array1d(0..43, [31, 13, 51, 15, 93, 17, 57, 39, 102, 94, 97, 95, 14, 60, 54, 18, 42, 18, 42, 44, 22, 58, 105, 101, 58, 18, 58, 18, 16, 44, 103, 16, 48, 16, 64, 22, 52, 64, 103, 54, 20, 64, 103, 16]);

Demands = [26, 11, 22, 18, 10, 9, 12, 10, 12, 19, 5, 18, 7, 14, 14, 20, 7, 4, 11, 3, 22, 15, 69, 26, 20, 12, 22, 9, 23, 7, 17, 3, 18, 18, 9, 4, 20, 24, 3, 4, 4, 23, 17];
